NAME : netgen20-5_19
COMMENT : Generated using the function generateClusteredNetwork from the R-package netgen (Bossek,2015) - Number of clusters: 5
TYPE : TSP
DIMENSION : 20
EDGE_WEIGHT_TYPE : EUC_2D
NODE_COORD_SECTION
1 61.5897078916 95.4638994534
2 59.5404956204 85.3570349414
3 53.5831378929 90.390983463
4 58.9344081394 84.795188289
5 30.4617401018 38.3085722195
6 34.0001358297 28.417222292
7 44.0280338501 34.7480326147
8 38.3966136753 47.3745827744
9 75.819946494 14.3619150579
10 83.5060902756 15.3521585815
11 82.1699483368 0.5387836827
12 65.3271407733 11.3187837476
13 98.0709288486 69.7057862528
14 96.975594412 73.861799555
15 84.7294265123 74.5624248455
16 88.0371984431 68.2756958063
17 3.4601588838 44.178494871
18 7.337398495 58.0551825058
19 12.2219648461 46.7442017136
20 19.4131458941 45.5178164278
EOF
